NAME : A-edited-image
COMMENT : (Points extracted and edited from map image)
TYPE : CVRP
DIMENSION : 39
EDGE_WEIGHT_TYPE : EUC_2D
CAPACITY : 473
NODE_COORD_SECTION
 1 22 30
 2 38 27
 3 14 29
 4 14 16
 5 22 10
 6 18 12
 7 8 36
 8 35 44
 9 16 42
 10 43 40
 11 18 44
 12 6 9
 13 24 36
 14 37 12
 15 22 46
 16 36 38
 17 26 32
 18 38 20
 19 38 9
 20 30 45
 21 3 27
 22 20 26
 23 24 40
 24 32 42
 25 30 29
 26 14 36
 27 8 10
 28 10 19
 29 39 32
 30 10 40
 31 42 12
 32 45 14
 33 40 14
 34 11 33
 35 8 32
 36 12 24
 37 36 10
 38 23 34
 39 28 34
DEMAND_SECTION
1 0
2 10
3 8
4 10
5 11
6 9
7 12
8 10
9 9
10 9
11 12
12 5
13 15
14 13
15 7
16 20
17 18
18 11
19 19
20 10
21 20
22 11
23 5
24 14
25 12
26 17
27 21
28 17
29 18
30 20
31 11
32 10
33 11
34 15
35 12
36 8
37 12
38 12
39 11
DEPOT_SECTION
1
-1
EOF
